
Gurobi 8.0.1 (linux64, Python) logging started Tue Jan 15 13:30:46 2019

Optimize a model with 1 rows, 4 columns and 4 nonzeros
Variable types: 0 continuous, 4 integer (4 binary)
Coefficient statistics:
  Matrix range     [2e+00, 4e+01]
  Objective range  [0e+00, 0e+00]
  Bounds range     [1e+00, 1e+00]
  RHS range        [2e+01, 2e+01]
Found heuristic solution: objective 29.0000000

Explored 0 nodes (0 simplex iterations) in 0.02 seconds
Thread count was 1 (of 8 available processors)

Solution count 1: 29 

Optimal solution found (tolerance 1.00e-04)
Best objective 2.900000000000e+01, best bound 2.900000000000e+01, gap 0.0000%
Optimize a model with 1 rows, 4 columns and 4 nonzeros
Variable types: 0 continuous, 4 integer (4 binary)
Coefficient statistics:
  Matrix range     [2e+00, 4e+01]
  Objective range  [0e+00, 0e+00]
  Bounds range     [1e+00, 1e+00]
  RHS range        [2e+01, 2e+01]

Loaded MIP start with objective 43


Explored 0 nodes (0 simplex iterations) in 0.00 seconds
Thread count was 1 (of 8 available processors)

Solution count 1: 43 

Optimal solution found (tolerance 1.00e-04)
Best objective 4.300000000000e+01, best bound 4.300000000000e+01, gap 0.0000%
Optimize a model with 1 rows, 4 columns and 4 nonzeros
Variable types: 0 continuous, 4 integer (4 binary)
Coefficient statistics:
  Matrix range     [2e+00, 4e+01]
  Objective range  [0e+00, 0e+00]
  Bounds range     [1e+00, 1e+00]
  RHS range        [2e+01, 2e+01]

Loaded MIP start with objective 28


Explored 0 nodes (0 simplex iterations) in 0.00 seconds
Thread count was 1 (of 8 available processors)

Solution count 1: 28 

Optimal solution found (tolerance 1.00e-04)
Best objective 2.800000000000e+01, best bound 2.800000000000e+01, gap 0.0000%

Gurobi 8.0.1 (linux64, Python) logging started Tue Jan 15 13:31:12 2019


Gurobi 8.0.1 (linux64, Python) logging started Tue Jan 15 13:33:19 2019


Gurobi 8.0.1 (linux64, Python) logging started Tue Jan 15 13:33:34 2019


Gurobi 8.0.1 (linux64, Python) logging started Tue Jan 15 13:36:28 2019


Gurobi 8.0.1 (linux64, Python) logging started Tue Jan 15 13:36:43 2019


Gurobi 8.0.1 (linux64, Python) logging started Tue Jan 15 13:37:24 2019


Gurobi 8.0.1 (linux64, Python) logging started Tue Jan 15 13:37:45 2019


Gurobi 8.0.1 (linux64, Python) logging started Tue Jan 15 13:38:50 2019


Gurobi 8.0.1 (linux64, Python) logging started Tue Jan 15 13:40:26 2019


Gurobi 8.0.1 (linux64, Python) logging started Tue Jan 15 13:40:36 2019


Gurobi 8.0.1 (linux64, Python) logging started Tue Jan 15 13:40:43 2019


Gurobi 8.0.1 (linux64, Python) logging started Tue Jan 15 20:14:53 2019


Gurobi 8.0.1 (linux64, Python) logging started Tue Jan 15 20:15:09 2019


Gurobi 8.0.1 (linux64, Python) logging started Tue Jan 15 20:15:21 2019


Gurobi 8.0.1 (linux64, Python) logging started Tue Jan 15 20:16:05 2019


Gurobi 8.0.1 (linux64, Python) logging started Tue Jan 15 20:16:35 2019


Gurobi 8.0.1 (linux64, Python) logging started Tue Jan 15 20:17:33 2019


Gurobi 8.0.1 (linux64, Python) logging started Tue Jan 15 20:17:55 2019


Gurobi 8.0.1 (linux64, Python) logging started Tue Jan 15 20:18:08 2019


Gurobi 8.0.1 (linux64, Python) logging started Tue Jan 15 20:18:58 2019


Gurobi 8.0.1 (linux64, Python) logging started Tue Jan 15 20:20:25 2019


Gurobi 8.0.1 (linux64, Python) logging started Tue Jan 15 20:20:38 2019


Gurobi 8.0.1 (linux64, Python) logging started Tue Jan 15 20:20:48 2019


Gurobi 8.0.1 (linux64, Python) logging started Tue Jan 15 20:21:04 2019


Gurobi 8.0.1 (linux64, Python) logging started Tue Jan 15 20:21:32 2019


Gurobi 8.0.1 (linux64, Python) logging started Tue Jan 15 20:21:52 2019


Gurobi 8.0.1 (linux64, Python) logging started Tue Jan 15 20:22:04 2019


Gurobi 8.0.1 (linux64, Python) logging started Tue Jan 15 20:22:31 2019


Gurobi 8.0.1 (linux64, Python) logging started Tue Jan 15 20:22:47 2019


Gurobi 8.0.1 (linux64, Python) logging started Tue Jan 15 20:23:03 2019


Gurobi 8.0.1 (linux64, Python) logging started Tue Jan 15 20:23:20 2019


Gurobi 8.0.1 (linux64, Python) logging started Tue Jan 15 20:23:31 2019


Gurobi 8.0.1 (linux64, Python) logging started Tue Jan 15 20:23:40 2019


Gurobi 8.0.1 (linux64, Python) logging started Tue Jan 15 20:23:49 2019


Gurobi 8.0.1 (linux64, Python) logging started Tue Jan 15 20:32:40 2019


Gurobi 8.0.1 (linux64, Python) logging started Tue Jan 15 20:32:49 2019


Gurobi 8.0.1 (linux64, Python) logging started Tue Jan 15 20:34:25 2019


Gurobi 8.0.1 (linux64, Python) logging started Tue Jan 15 20:34:39 2019


Gurobi 8.0.1 (linux64, Python) logging started Tue Jan 15 20:35:42 2019


Gurobi 8.0.1 (linux64, Python) logging started Tue Jan 15 20:37:18 2019


Gurobi 8.0.1 (linux64, Python) logging started Tue Jan 15 20:38:17 2019


Gurobi 8.0.1 (linux64, Python) logging started Tue Jan 15 20:38:38 2019


Gurobi 8.0.1 (linux64, Python) logging started Tue Jan 15 20:38:53 2019


Gurobi 8.0.1 (linux64, Python) logging started Tue Jan 15 20:39:22 2019


Gurobi 8.0.1 (linux64, Python) logging started Tue Jan 15 20:39:38 2019


Gurobi 8.0.1 (linux64, Python) logging started Tue Jan 15 20:39:43 2019


Gurobi 8.0.1 (linux64, Python) logging started Tue Jan 15 20:40:34 2019


Gurobi 8.0.1 (linux64, Python) logging started Tue Jan 15 20:42:01 2019


Gurobi 8.0.1 (linux64, Python) logging started Tue Jan 15 20:42:28 2019


Gurobi 8.0.1 (linux64, Python) logging started Tue Jan 15 20:42:53 2019


Gurobi 8.0.1 (linux64, Python) logging started Tue Jan 15 20:43:14 2019


Gurobi 8.0.1 (linux64, Python) logging started Tue Jan 15 20:43:42 2019


Gurobi 8.0.1 (linux64, Python) logging started Tue Jan 15 20:43:56 2019


Gurobi 8.0.1 (linux64, Python) logging started Tue Jan 15 20:44:56 2019


Gurobi 8.0.1 (linux64, Python) logging started Tue Jan 15 20:51:47 2019


Gurobi 8.0.1 (linux64, Python) logging started Tue Jan 15 20:52:33 2019


Gurobi 8.0.1 (linux64, Python) logging started Tue Jan 15 20:52:46 2019


Gurobi 8.0.1 (linux64, Python) logging started Tue Jan 15 20:53:36 2019


Gurobi 8.0.1 (linux64, Python) logging started Tue Jan 15 20:54:31 2019


Gurobi 8.0.1 (linux64, Python) logging started Tue Jan 15 20:55:43 2019


Gurobi 8.0.1 (linux64, Python) logging started Tue Jan 15 20:56:11 2019


Gurobi 8.0.1 (linux64, Python) logging started Tue Jan 15 20:57:33 2019


Gurobi 8.0.1 (linux64, Python) logging started Tue Jan 15 20:57:39 2019


Gurobi 8.0.1 (linux64, Python) logging started Tue Jan 15 20:58:16 2019


Gurobi 8.0.1 (linux64, Python) logging started Tue Jan 15 20:58:30 2019


Gurobi 8.0.1 (linux64, Python) logging started Tue Jan 15 20:59:24 2019


Gurobi 8.0.1 (linux64, Python) logging started Tue Jan 15 20:59:49 2019


Gurobi 8.0.1 (linux64, Python) logging started Tue Jan 15 20:59:55 2019


Gurobi 8.0.1 (linux64, Python) logging started Tue Jan 15 21:01:52 2019


Gurobi 8.0.1 (linux64, Python) logging started Tue Jan 15 21:01:58 2019


Gurobi 8.0.1 (linux64, Python) logging started Tue Jan 15 21:04:12 2019


Gurobi 8.0.1 (linux64, Python) logging started Tue Jan 15 21:04:57 2019


Gurobi 8.0.1 (linux64, Python) logging started Tue Jan 15 21:05:20 2019


Gurobi 8.0.1 (linux64, Python) logging started Tue Jan 15 21:06:16 2019


Gurobi 8.0.1 (linux64, Python) logging started Tue Jan 15 21:06:32 2019


Gurobi 8.0.1 (linux64, Python) logging started Tue Jan 15 21:06:51 2019


Gurobi 8.0.1 (linux64, Python) logging started Tue Jan 15 21:06:52 2019


Gurobi 8.0.1 (linux64, Python) logging started Tue Jan 15 21:06:54 2019


Gurobi 8.0.1 (linux64, Python) logging started Tue Jan 15 21:06:56 2019


Gurobi 8.0.1 (linux64, Python) logging started Tue Jan 15 21:06:57 2019


Gurobi 8.0.1 (linux64, Python) logging started Tue Jan 15 21:07:27 2019


Gurobi 8.0.1 (linux64, Python) logging started Tue Jan 15 21:08:10 2019


Gurobi 8.0.1 (linux64, Python) logging started Tue Jan 15 23:45:44 2019


Gurobi 8.0.1 (linux64, Python) logging started Tue Jan 15 23:54:10 2019


Gurobi 8.0.1 (linux64, Python) logging started Tue Jan 15 23:57:01 2019


Gurobi 8.0.1 (linux64, Python) logging started Wed Jan 16 00:00:21 2019


Gurobi 8.0.1 (linux64, Python) logging started Wed Jan 16 00:01:21 2019


Gurobi 8.0.1 (linux64, Python) logging started Wed Jan 16 00:02:30 2019


Gurobi 8.0.1 (linux64, Python) logging started Wed Jan 16 00:02:43 2019


Gurobi 8.0.1 (linux64, Python) logging started Wed Jan 16 00:03:10 2019


Gurobi 8.0.1 (linux64, Python) logging started Wed Jan 16 00:08:41 2019


Gurobi 8.0.1 (linux64, Python) logging started Wed Jan 16 00:22:28 2019


Gurobi 8.0.1 (linux64, Python) logging started Wed Jan 16 00:25:11 2019


Gurobi 8.0.1 (linux64, Python) logging started Wed Jan 16 00:27:28 2019

